<number of tasks>
29

<cycle time>
54

<task times>
1 7
2 19
3 15
4 5
5 12
6 10
7 8
8 16
9 2
10 6
11 21
12 10
13 9
14 4
15 14
16 7
17 14
18 17
19 10
20 16
21 1
22 9
23 25
24 14
25 14
26 2
27 10
28 7
29 20

<precedence relations>
1,3
1,25
2,6
2,26
3,4
4,5
5,8
5,13
6,8
7,9
7,12
7,25
8,11
8,16
9,10
10,14
10,15
11,17
12,15
13,17
14,16
15,19
16,18
17,20
18,22
19,21
20,23
21,22
22,23
23,24
23,28
24,29
25,29
26,27
27,29
28,29

<setup times forward>
1,6:2
1,10:4
1,12:4
1,14:1
1,15:4
1,19:1
1,21:3
1,25:4
2,4:4
2,5:2
2,6:2
2,10:4
2,12:4
2,13:2
2,14:1
2,15:4
2,19:1
2,21:3
2,25:4
3,4:4
3,6:2
3,10:4
3,12:4
3,14:1
3,15:4
3,19:1
3,21:3
3,25:4
4,2:4
4,5:6
4,6:6
4,7:4
4,9:4
4,14:3
4,19:3
4,21:7
4,26:4
4,27:4
5,2:2
5,7:2
5,8:4
5,9:2
5,10:6
5,12:6
5,13:4
5,14:3
5,15:6
5,19:3
5,21:1
5,25:6
5,26:2
5,27:2
6,1:2
6,3:2
6,4:6
6,7:2
6,8:4
6,9:2
6,10:6
6,12:6
6,13:4
6,14:3
6,15:6
6,19:3
6,21:1
6,25:6
6,26:2
6,27:2
7,4:4
7,5:2
7,6:2
7,8:2
7,11:2
7,12:4
7,13:2
7,17:1
7,20:3
7,25:4
8,7:2
8,9:2
8,10:2
8,12:2
8,14:1
8,15:2
8,16:1
8,19:1
8,21:5
8,25:2
8,26:2
8,27:2
9,4:4
9,5:2
9,6:2
9,8:2
9,10:4
9,11:2
9,12:4
9,13:2
9,17:1
9,20:3
9,25:4
10,1:4
10,2:4
10,3:4
10,5:6
10,6:6
10,8:2
10,11:2
10,13:2
10,14:3
10,17:3
10,20:7
10,26:4
10,27:4
11,7:2
11,9:2
11,10:2
11,12:2
11,14:1
11,15:2
11,16:1
11,17:1
11,18:1
11,19:1
11,21:5
11,22:5
11,25:2
11,26:2
11,27:2
12,1:4
12,2:4
12,3:4
12,5:6
12,6:6
12,8:2
12,9:4
12,11:2
12,13:2
12,14:3
12,16:3
12,17:3
12,18:3
12,20:7
12,26:4
12,27:4
13,2:2
13,6:4
13,7:2
13,9:2
13,10:2
13,12:2
13,14:1
13,15:2
13,16:1
13,17:1
13,18:1
13,19:1
13,21:5
13,22:5
13,25:2
13,26:2
13,27:2
14,1:1
14,2:1
14,3:1
14,4:3
14,5:3
14,6:3
14,8:1
14,11:1
14,12:3
14,13:1
14,15:3
14,20:4
14,21:4
14,25:3
14,26:1
14,27:1
15,1:4
15,2:4
15,3:4
15,5:6
15,6:6
15,8:2
15,11:2
15,13:2
15,14:3
15,16:3
15,17:3
15,18:3
15,19:3
15,20:7
15,26:4
15,27:4
16,11:1
16,12:3
16,13:1
16,15:3
16,20:4
16,21:4
16,25:3
16,26:1
16,27:1
17,7:1
17,9:1
17,10:3
17,12:3
17,15:3
17,20:4
17,21:4
17,22:4
17,25:3
17,26:1
17,27:1
18,11:1
18,12:3
18,13:1
18,15:3
18,20:4
18,21:4
18,22:4
18,25:3
18,26:1
18,27:1
19,1:1
19,2:1
19,3:1
19,4:3
19,5:3
19,6:3
19,8:1
19,11:1
19,13:1
19,20:4
19,21:4
19,25:3
19,26:1
19,27:1
20,7:3
20,9:3
20,10:7
20,12:7
20,14:4
20,15:7
20,16:4
20,18:4
20,19:4
20,25:7
20,26:3
20,27:3
21,1:3
21,2:3
21,3:3
21,4:7
21,5:1
21,6:1
21,8:5
21,11:5
21,13:5
21,14:4
21,16:4
21,17:4
21,18:4
21,25:7
21,26:3
21,27:3
22,11:5
22,13:5
22,17:4
22,25:7
22,26:3
22,27:3
23,24:3
23,25:7
23,26:3
23,27:3
23,28:3
24,25:4
25,2:4
25,3:4
25,5:6
25,6:6
25,8:2
25,9:4
25,11:2
25,13:2
25,14:3
25,16:3
25,17:3
25,18:3
25,19:3
25,20:7
25,21:7
25,22:7
25,23:7
25,24:4
25,26:4
25,27:4
25,28:4
25,29:4
26,4:4
26,5:2
26,6:2
26,8:2
26,10:4
26,11:2
26,12:4
26,13:2
26,14:1
26,15:4
26,16:1
26,17:1
26,18:1
26,19:1
26,20:3
26,21:3
26,22:3
26,23:3
26,25:4
27,4:4
27,5:2
27,6:2
27,8:2
27,10:4
27,11:2
27,12:4
27,13:2
27,14:1
27,15:4
27,16:1
27,17:1
27,18:1
27,19:1
27,20:3
27,21:3
27,22:3
27,23:3
27,25:4
28,25:4

<setup times backward>
1,1:1
1,2:1
1,6:3
1,7:1
1,9:1
1,21:4
1,26:1
1,27:1
2,1:1
2,2:1
2,3:1
2,5:3
2,7:1
2,9:1
2,21:4
3,1:1
3,2:1
3,3:1
3,6:3
3,7:1
3,9:1
3,21:4
3,26:1
3,27:1
4,1:5
4,2:5
4,3:5
4,4:1
4,6:7
4,7:5
4,9:5
4,10:1
4,12:1
4,14:4
4,15:1
4,19:4
4,21:8
4,25:1
4,26:5
4,27:5
5,5:1
5,6:1
5,21:2
6,5:1
6,6:1
6,21:2
7,1:1
7,2:1
7,3:1
7,5:3
7,6:3
7,7:1
7,20:4
7,26:1
7,27:1
8,1:3
8,2:3
8,3:3
8,5:5
8,6:5
8,7:3
8,8:1
8,9:3
8,13:1
8,14:2
8,19:2
8,21:6
8,26:3
8,27:3
9,1:1
9,2:1
9,3:1
9,5:3
9,6:3
9,7:1
9,9:1
9,20:4
9,26:1
9,27:1
10,1:5
10,2:5
10,3:5
10,4:1
10,5:7
10,6:7
10,7:5
10,8:3
10,9:5
10,10:1
10,11:3
10,12:1
10,13:3
10,17:4
10,20:8
10,25:1
10,26:5
10,27:5
11,1:3
11,2:3
11,3:3
11,5:5
11,6:5
11,7:3
11,8:1
11,9:3
11,11:1
11,13:1
11,14:2
11,16:2
11,18:2
11,19:2
11,21:6
11,22:6
11,26:3
11,27:3
12,1:5
12,2:5
12,3:5
12,4:1
12,5:7
12,6:7
12,7:5
12,8:3
12,9:5
12,10:1
12,11:3
12,12:1
12,13:3
12,14:4
12,16:4
12,17:4
12,18:4
12,20:8
12,25:1
12,26:5
12,27:5
13,1:3
13,2:3
13,3:3
13,5:5
13,6:5
13,7:3
13,8:1
13,9:3
13,11:1
13,13:1
13,14:2
13,16:2
13,18:2
13,19:2
13,21:6
13,22:6
13,26:3
13,27:3
14,1:2
14,2:2
14,3:2
14,5:4
14,6:4
14,7:2
14,9:2
14,14:1
14,17:1
14,19:1
14,20:5
14,21:5
14,26:2
14,27:2
15,1:5
15,2:5
15,3:5
15,4:1
15,5:7
15,6:7
15,7:5
15,8:3
15,9:5
15,10:1
15,11:3
15,12:1
15,13:3
15,14:4
15,15:1
15,16:4
15,17:4
15,18:4
15,20:8
15,25:1
15,26:5
15,27:5
16,1:2
16,2:2
16,3:2
16,5:4
16,6:4
16,7:2
16,9:2
16,14:1
16,16:1
16,17:1
16,19:1
16,20:5
16,21:5
16,26:2
16,27:2
17,1:2
17,2:2
17,3:2
17,5:4
17,6:4
17,7:2
17,9:2
17,14:1
17,16:1
17,17:1
17,18:1
17,19:1
17,21:5
17,22:5
17,26:2
17,27:2
18,1:2
18,2:2
18,3:2
18,5:4
18,6:4
18,7:2
18,9:2
18,14:1
18,16:1
18,17:1
18,18:1
18,19:1
18,20:5
18,21:5
18,26:2
18,27:2
19,1:2
19,2:2
19,3:2
19,5:4
19,6:4
19,7:2
19,9:2
19,14:1
19,16:1
19,17:1
19,18:1
19,19:1
19,20:5
19,26:2
19,27:2
20,20:1
20,21:1
20,22:1
21,20:1
21,21:1
22,20:1
22,21:1
22,22:1
23,20:1
23,21:1
23,22:1
23,23:1
24,1:1
24,2:1
24,3:1
24,5:3
24,6:3
24,7:1
24,9:1
24,20:4
24,21:4
24,22:4
24,23:4
24,24:1
24,26:1
24,27:1
24,28:1
25,1:5
25,2:5
25,3:5
25,4:1
25,5:7
25,6:7
25,7:5
25,8:3
25,9:5
25,10:1
25,11:3
25,12:1
25,13:3
25,14:4
25,15:1
25,16:4
25,17:4
25,18:4
25,19:4
25,20:8
25,21:8
25,22:8
25,23:8
25,24:5
25,25:1
25,26:5
25,27:5
25,28:5
26,1:1
26,2:1
26,3:1
26,5:3
26,6:3
26,7:1
26,9:1
26,20:4
26,21:4
26,22:4
26,23:4
26,24:1
26,26:1
26,28:1
27,1:1
27,2:1
27,3:1
27,5:3
27,6:3
27,7:1
27,9:1
27,20:4
27,21:4
27,22:4
27,23:4
27,24:1
27,26:1
27,27:1
27,28:1
28,1:1
28,2:1
28,3:1
28,5:3
28,6:3
28,7:1
28,9:1
28,20:4
28,21:4
28,22:4
28,23:4
28,24:1
28,26:1
28,27:1
28,28:1
29,1:1
29,2:1
29,3:1
29,5:3
29,6:3
29,7:1
29,9:1
29,20:4
29,21:4
29,22:4
29,23:4
29,24:1
29,26:1
29,27:1
29,28:1
29,29:1

<end>

<optimal SALBP-1 value>
7


<rand seed>
467321153

